results/res_prop_muc/res_Cimatti_mathsat_cores/QF_IDL/DTP_k2_n35_c245_s16.smt.smt2.out
### boolMucExtractionTime 1087790
