results/res_prop_muc/res_Cimatti_mathsat_cores/QF_IDL/DTP_k2_n35_c245_s16.smt.smt2.res
unsat
( c1
  c10
  c100
  c101
  c102
  c103
  c104
  c106
  c107
  c11
  c110
  c111
  c113
  c114
  c115
  c116
  c117
  c118
  c119
  c12
  c124
  c125
  c126
  c127
  c128
  c13
  c130
  c131
  c132
  c134
  c135
  c136
  c137
  c140
  c142
  c147
  c148
  c149
  c151
  c155
  c156
  c157
  c158
  c159
  c16
  c160
  c164
  c165
  c167
  c168
  c169
  c170
  c171
  c172
  c173
  c174
  c177
  c178
  c181
  c182
  c183
  c184
  c186
  c187
  c189
  c19
  c196
  c197
  c199
  c2
  c20
  c201
  c202
  c203
  c207
  c208
  c209
  c210
  c211
  c215
  c216
  c22
  c220
  c224
  c227
  c230
  c234
  c235
  c236
  c237
  c242
  c243
  c244
  c25
  c29
  c3
  c30
  c33
  c36
  c37
  c38
  c39
  c4
  c42
  c43
  c44
  c45
  c46
  c47
  c49
  c5
  c50
  c51
  c53
  c56
  c57
  c59
  c6
  c60
  c61
  c63
  c66
  c67
  c68
  c69
  c7
  c70
  c71
  c72
  c73
  c74
  c78
  c8
  c80
  c83
  c84
  c85
  c86
  c88
  c89
  c9
  c90
  c91
  c92
  c95
  c96
  c97
  c99 )
